statesNumber = 2;
timersNumber = 1;
symbolsNumber = 4;
samplesNumber = 2;
edgeMaxNumber = 2;
sampleMaxLength = 6;
labels = [| 1, 2, 3, 4, 1, 1
	  | 1, 4, 2, 3, 1, 1 |];
times  = [| 1, 2, 3, 4, 1, 1
	  | 1, 3, 5, 6, 1, 1 |];
sampleLength = [4, 4];
